c Random Network
p max    10      20
n         1  s
n        10  t
a       4       3      18
a       2       5       8
a       5       1      46
a       3       1      24
a       1       2      39
a       8       1      22
a       5       8      17
a       8       5       1
a       2       1       4
a       7       8       4
a       1       8       2
a       1       4      43
a       4       5      10
a       6       7      16
a       3       6      20
a       1       3       2
a      10       8      30
a       4       1      29
a       2       3      20
a       7       6       3
